proyfinal/src/viki/013/andrea/andrea-localstore/experimentInOfficeAgust.take6/worker_5/737d1e8b-f1f2-42da-b02f-c8c89e3f3881.als.cnf.out
Reading from standard input... Use '--help' for help.
============================[ Problem Statistics ]=============================
|                                                                             |
|  Number of variables:         87638                                         |
|  Number of clauses:          161767                                         |
|  Parse time:                   0.03 s                                       |
|                                                                             |
============================[ Search Statistics ]==============================
| Conflicts |          ORIGINAL         |          LEARNT          | Progress |
|           |    Vars  Clauses Literals |    Limit  Clauses Lit/Cl |          |
===============================================================================
|       100 |   62283   104802   261945 |    38427      100     10 | 28.932 % |
|       250 |   62283   104802   261945 |    42270      250     21 | 28.932 % |
|       475 |   62283   104802   261945 |    46497      475     55 | 28.932 % |
|       812 |   62283   104802   261945 |    51146      812     77 | 28.932 % |
|      1318 |   62282   104758   261855 |    56261     1316     74 | 28.933 % |
|      2077 |   48091    64624   163515 |    61887     2013     85 | 45.125 % |
|      3216 |   47785    63562   160840 |    68076     3142     71 | 45.475 % |
|      4924 |   47423    62109   157403 |    74884     4837     60 | 45.888 % |
|      7486 |   47227    61306   155496 |    82372     7218     53 | 46.111 % |
===============================================================================
restarts              : 39
conflicts             : 9233           (8190 /sec)
decisions             : 29829          (0.00 % random) (26460 /sec)
propagations          : 13590794       (12055790 /sec)
conflict literals     : 447166         (40.67 % deleted)
Memory used           : 30.07 MB
CPU time              : 1.12732 s

UNSATISFIABLE
